RT is False
Default write of storage_offers_DA.csv just to have a file (but constraint should be inactive)
Reading model...
...model read.
creating competitive generators file...
...competitive generators recorded.
Loading data...
.. day-ahead data with real-time VRE data read.
Compiling instance...
...instance created.
Creating Offer Mitigation (model will solve as dispatch if TRUE)...
NOTE: storage offers will not be mitigated
...storage offer mitigation file created
Converting model to MPEC...
...converted
NOTE: initial MIP solve with only storage competitive to get feasible solution
Solving...

Welcome to IBM(R) ILOG(R) CPLEX(R) Interactive Optimizer 12.9.0.0
  with Simplex, Mixed Integer & Barrier Optimizers
5725-A06 5725-A29 5724-Y48 5724-Y49 5724-Y54 5724-Y55 5655-Y21
Copyright IBM Corp. 1988, 2019.  All Rights Reserved.

Type 'help' for a list of available commands.
Type 'help' followed by a command name for more
information on commands.

CPLEX> Logfile 'cplex.log' closed.
Logfile 'C:\Users\llavin\Desktop\test826\logs\tmp0t1r514q.cplex.log' open.
CPLEX> New value for parallel optimization mode: -1
CPLEX> New value for mixed integer optimality gap tolerance: 0.02
CPLEX> New value for integrality tolerance: 1e-12
CPLEX> New value for deterministic time limit in ticks: 65000
CPLEX> Problem 'C:\Users\llavin\Desktop\test826\logs\tmpp7bp4nqq.pyomo.lp' read.
Read time = 0.19 sec. (13.64 ticks)
CPLEX> Problem name         : C:\Users\llavin\Desktop\test826\logs\tmpp7bp4nqq.pyomo.lp
Objective sense      : Maximize
Variables            :   53815  [Nneg: 1,  Box: 22002,  Free: 4464,
                                 Binary: 27348]
Objective nonzeros   :    8980
Linear constraints   :  123235  [Less: 41356,  Greater: 59114,  Equal: 22765]
  Nonzeros           :  292605
  RHS nonzeros       :   67515

Variables            : Min LB: -5000.000        Max UB: 1000000.       
Objective nonzeros   : Min   : 0.4000000        Max   : 834.3917       
Linear constraints   :
  Nonzeros           : Min   : 0.4000000        Max   : 1000000.       
  RHS nonzeros       : Min   : 0.001000000      Max   : 1000000.       
CPLEX> CPXPARAM_Parallel                                -1
CPXPARAM_DetTimeLimit                            65000
CPXPARAM_MIP_Tolerances_MIPGap                   0.02
CPXPARAM_MIP_Tolerances_Integrality              9.9999999999999998e-13
Tried aggregator 3 times.
MIP Presolve eliminated 88647 rows and 18927 columns.
MIP Presolve added 3403 rows and 0 columns.
MIP Presolve modified 24936 coefficients.
Aggregator did 13029 substitutions.
Reduced MIP has 24962 rows, 21303 columns, and 71400 nonzeros.
Reduced MIP has 8416 binaries, 0 generals, 0 SOSs, and 0 indicators.
Presolve time = 0.27 sec. (173.05 ticks)
Probing fixed 387 vars, tightened 3899 bounds.
Probing time = 0.06 sec. (18.79 ticks)
Tried aggregator 2 times.
MIP Presolve eliminated 872 rows and 775 columns.
MIP Presolve modified 3038 coefficients.
Aggregator did 24 substitutions.
Reduced MIP has 24066 rows, 20504 columns, and 68804 nonzeros.
Reduced MIP has 8029 binaries, 0 generals, 0 SOSs, and 0 indicators.
Presolve time = 0.11 sec. (89.46 ticks)
Probing fixed 0 vars, tightened 370 bounds.
Probing time = 0.16 sec. (23.14 ticks)
Clique table members: 44982.
MIP emphasis: balance optimality and feasibility.
MIP search method: dynamic search.
Parallel mode: opportunistic, using up to 32 threads.
Root relaxation solution time = 0.38 sec. (554.16 ticks)

        Nodes                                         Cuts/
   Node  Left     Objective  IInf  Best Integer    Best Bound    ItCnt     Gap

      0     0      622.7951    59                    622.7951     4728         
*     0+    0                          622.7951      622.7951             0.00%
      0     0        cutoff            622.7951      622.7951     4728    0.00%
Elapsed time = 1.52 sec. (1158.39 ticks, tree = 0.01 MB, solutions = 1)

Root node processing (before b&c):
  Real time             =    1.53 sec. (1160.33 ticks)
Parallel b&c, 32 threads:
  Real time             =    0.00 sec. (0.00 ticks)
  Sync time (average)   =    0.00 sec.
  Wait time (average)   =    0.00 sec.
                          ------------
Total (root+branch&cut) =    1.53 sec. (1160.33 ticks)

Solution pool: 1 solution saved.

MIP - Integer optimal solution:  Objective =  6.2279509787e+02
Solution time =    1.56 sec.  Iterations = 4728  Nodes = 0
Deterministic time = 1160.49 ticks  (742.95 ticks/sec)

CPLEX> Incumbent solution written to file 'C:\Users\llavin\Desktop\test826\logs\tmp4mj7vsdx.cplex.sol'.
CPLEX> NOTE: no warmstart specified for MIP iteration, default behavior is true
NOTE: resolving with all competitive generators using storage-only solution to warmstart
Solving...

Welcome to IBM(R) ILOG(R) CPLEX(R) Interactive Optimizer 12.9.0.0
  with Simplex, Mixed Integer & Barrier Optimizers
5725-A06 5725-A29 5724-Y48 5724-Y49 5724-Y54 5724-Y55 5655-Y21
Copyright IBM Corp. 1988, 2019.  All Rights Reserved.

Type 'help' for a list of available commands.
Type 'help' followed by a command name for more
information on commands.

CPLEX> Logfile 'cplex.log' closed.
Logfile 'C:\Users\llavin\Desktop\test826\logs\tmppa88rrou.cplex.log' open.
CPLEX> New value for parallel optimization mode: -1
CPLEX> New value for mixed integer optimality gap tolerance: 0.02
CPLEX> New value for integrality tolerance: 1e-12
CPLEX> New value for deterministic time limit in ticks: 65000
CPLEX> Problem 'C:\Users\llavin\Desktop\test826\logs\tmptnictzg7.pyomo.lp' read.
Read time = 0.22 sec. (13.66 ticks)
CPLEX> MIP start file 'C:\Users\llavin\Desktop\test826\logs\tmpqy52dgz2.cplex.mst' read.
CPLEX> Problem name         : C:\Users\llavin\Desktop\test826\logs\tmptnictzg7.pyomo.lp
Objective sense      : Maximize
Variables            :   54535  [Nneg: 1,  Box: 22722,  Free: 4464,
                                 Binary: 27348]
Objective nonzeros   :    9676
Linear constraints   :  123235  [Less: 41356,  Greater: 59114,  Equal: 22765]
  Nonzeros           :  292605
  RHS nonzeros       :   67515

Variables            : Min LB: -5000.000        Max UB: 1000000.       
Objective nonzeros   : Min   : 0.4000000        Max   : 787.3167       
Linear constraints   :
  Nonzeros           : Min   : 0.4000000        Max   : 1000000.       
  RHS nonzeros       : Min   : 0.001000000      Max   : 1000000.       
CPLEX> CPXPARAM_Parallel                                -1
CPXPARAM_DetTimeLimit                            65000
CPXPARAM_MIP_Tolerances_MIPGap                   0.02
CPXPARAM_MIP_Tolerances_Integrality              9.9999999999999998e-13
Warning:  No solution found from 1 MIP starts.
Retaining values of one MIP start for possible repair.
Tried aggregator 3 times.
MIP Presolve eliminated 88647 rows and 19647 columns.
MIP Presolve added 3403 rows and 0 columns.
MIP Presolve modified 24936 coefficients.
Aggregator did 13029 substitutions.
Reduced MIP has 24962 rows, 21303 columns, and 71400 nonzeros.
Reduced MIP has 8416 binaries, 0 generals, 0 SOSs, and 0 indicators.
Presolve time = 0.30 sec. (173.41 ticks)
Probing fixed 387 vars, tightened 3899 bounds.
Probing time = 0.08 sec. (18.79 ticks)
Tried aggregator 2 times.
MIP Presolve eliminated 872 rows and 775 columns.
MIP Presolve modified 3038 coefficients.
Aggregator did 24 substitutions.
Reduced MIP has 24066 rows, 20504 columns, and 68804 nonzeros.
Reduced MIP has 8029 binaries, 0 generals, 0 SOSs, and 0 indicators.
Presolve time = 0.11 sec. (89.47 ticks)
Probing fixed 0 vars, tightened 370 bounds.
Probing time = 0.13 sec. (23.14 ticks)
Clique table members: 44982.
MIP emphasis: balance optimality and feasibility.
MIP search method: dynamic search.
Parallel mode: opportunistic, using up to 32 threads.
Root relaxation solution time = 0.41 sec. (656.53 ticks)

        Nodes                                         Cuts/
   Node  Left     Objective  IInf  Best Integer    Best Bound    ItCnt     Gap

      0     0   100107.9193   280                 100107.9193     5373         
      0     0    91184.6091   194                   Cuts: 135     5590         
      0     0    91029.9058   196                    Cuts: 25     5617         
      0     0    91029.9058   194                    Cuts: 19     5624         
      0     0    91029.9058   138                    Cuts: 12     5628         
      0     0    91029.9058   138                   Covers: 1     5640         
*     0+    0                          622.7951    91029.9058              --- 
*     0+    0                          622.7951    82466.3713              --- 
Repair heuristic found nothing.
      0    24    42832.1707    78      622.7951   Impl Bds: 6     5805     --- 
Elapsed time = 7.19 sec. (4288.65 ticks, tree = 0.02 MB, solutions = 2)
    495    63    45517.7434    71      622.7951    82084.3484     6413     --- 
    984   332    19050.9636    25      622.7951    79950.4155    11386     --- 
   1524   598        cutoff            622.7951    79950.4155    17323     --- 
   2131   824     1275.1593    19      622.7951    77122.2954    24017     --- 
   2741  1199     1368.1295    53      622.7951    73346.9968    33182     --- 
   3303  1492     4362.8032    19      622.7951    64559.4074    40019     --- 
   3922  1789     5522.1224    15      622.7951    50220.2328    48445     --- 
   4593  2079        cutoff            622.7951    48334.5035    61910     --- 
   5311  2060        cutoff            622.7951    35199.9914    59536     --- 
   7939  2712     9171.3132    49      622.7951    25936.4764    93010     --- 
Elapsed time = 24.20 sec. (7390.60 ticks, tree = 17.46 MB, solutions = 2)
*  8283+ 1872                          622.7952    22384.9273              --- 
   8283  1871        cutoff            622.7952      622.7952   109916    0.00%

Cover cuts applied:  4
Implied bound cuts applied:  18
Flow cuts applied:  103
Mixed integer rounding cuts applied:  22
Gomory fractional cuts applied:  7
Warning: integer solution contains unscaled infeasibilities.

Root node processing (before b&c):
  Real time             =    5.64 sec. (4242.16 ticks)
Parallel b&c, 32 threads:
  Real time             =   23.34 sec. (6399.43 ticks)
  Sync time (average)   =    0.53 sec.
  Wait time (average)   =    0.00 sec.
                          ------------
Total (root+branch&cut) =   28.98 sec. (10641.59 ticks)

Solution pool: 3 solutions saved.

Maximum unscaled integer infeasibility = 1.71831e-10.
MIP - Integer optimal with unscaled infeasibilities:  Objective =  6.2279522045e+02
Solution time =   29.02 sec.  Iterations = 109916  Nodes = 8283
Deterministic time = 10641.74 ticks  (366.75 ticks/sec)

CPLEX> Incumbent solution written to file 'C:\Users\llavin\Desktop\test826\logs\tmp13jexcnr.cplex.sol'.
CPLEX> Exporting results... 
